c SAT Generator for power-law distributed variable frequencies
c -g u -v 20 -c 91 -k 3 -p 2.750000 -b 3.200000 -f /home/schmidt/Devel/ni-kop-sat/data/ensemble/ruf20-91/ruf20-91-650 -u 1 -U 1 -s 3570470083
p cnf 20 91
10 11 -19 0
3 10 17 0
6 -8 16 0
-8 16 -19 0
5 -12 19 0
3 -16 -18 0
5 -6 -18 0
6 -8 9 0
9 11 -15 0
-9 16 -20 0
-6 7 8 0
-3 18 20 0
-2 -7 -9 0
-11 -12 14 0
10 -18 -19 0
-4 -5 18 0
-2 12 -19 0
8 14 -19 0
6 10 -17 0
-4 14 -19 0
-3 -16 -18 0
3 14 17 0
8 11 -14 0
-2 4 14 0
1 -5 -10 0
4 -14 20 0
-12 -14 -16 0
1 -6 -20 0
-2 -10 14 0
-8 10 11 0
7 8 13 0
5 -14 -15 0
3 13 -19 0
7 11 18 0
5 9 -18 0
-1 11 -14 0
-4 9 -11 0
5 7 -9 0
1 -13 -14 0
-8 11 20 0
-5 -14 20 0
7 -12 -20 0
9 -15 16 0
3 8 -17 0
3 -8 20 0
2 14 19 0
2 12 16 0
-1 -4 -18 0
1 6 -11 0
-2 4 13 0
1 -2 9 0
7 -14 15 0
1 -3 11 0
4 -8 16 0
1 -8 10 0
-3 -4 16 0
-2 -3 -12 0
4 6 10 0
9 11 -14 0
-3 4 -20 0
-16 -17 20 0
6 -7 -19 0
-8 18 19 0
7 -10 11 0
-2 7 -12 0
4 -5 -6 0
-1 4 -12 0
-2 15 -17 0
-2 3 -17 0
-4 -7 14 0
1 -16 18 0
5 -6 17 0
3 14 -15 0
6 12 19 0
-3 -10 15 0
5 -7 15 0
-6 10 -17 0
-6 -17 -20 0
6 -11 20 0
-4 13 -17 0
2 -15 -18 0
-1 -7 12 0
-2 -15 20 0
-6 -12 -14 0
-3 14 16 0
-10 15 18 0
3 -6 20 0
-6 -11 -19 0
2 -11 -17 0
-12 -19 20 0
-4 5 13 0
